32250
7 3 9 20 18 17 5 -1 200 250 100 250 500 100 100 
3 20 5 16 4 1 6 2 14 8 13 15 10 -1 250 250 400 100 25 25 100 100 100 25 25 50 50 
1
1
6 -1 40 
6 -1 40 
6 1 -1 20 20 
16 -1 40 
16 -1 40 
16 15 -1 20 20 
1 11 15 -1 5 25 10 
15 12 -1 20 20 
12 19 -1 5 25 
